224355.41,20.67,22.64
225085.4,20.6,22.57
225680.84,20.55,22.51
234387.73,19.79,21.67
212571.89,21.82,23.9
218963.68,21.18,23.2
234441.94,19.78,21.67
220688.43,21.01,23.02
220335.82,21.05,23.05
221153.01,20.97,22.97
221232.05,20.96,22.96
226673.26,20.46,22.41
231197.44,20.06,21.97
216105.86,21.46,23.5
228732.08,20.27,22.21
227294.42,20.4,22.35
217477.52,21.32,23.36
220145.64,21.06,23.07
226955.0,20.43,22.38
219951.89,21.08,23.09
